c partition 1 of 2
p cnf 20 30
13 -19 -4 0
-3 -5 -7 0
-19 7 8 0
-5 -13 15 0
15 -9 3 0
-6 16 1 0
-20 -13 -2 0
13 -8 3 0
-18 9 -12 0
-9 -16 11 0
-3 20 -11 0
5 -1 6 0
3 6 14 0
-6 -3 7 0
-8 10 -7 0
12 -15 -11 0
9 6 20 0
11 17 -3 0
2 -16 -15 0
-2 5 17 0
6 4 -1 0
-18 1 -14 0
-6 10 19 0
-2 11 -15 0
18 -3 6 0
12 -1 -10 0
8 14 -1 0
-13 11 16 0
9 7 -5 0
3 11 -8 0
